750
750 750
1 600 275
2 599 900
3 598 663
4 598 751
5 597 813
6 597 772
7 597 526
8 596 809
9 596 770
10 594 140
11 592 702
12 590 58
13 590 761
14 590 445
15 589 892
16 589 321
17 587 225
18 587 872
19 586 686
20 585 713
21 583 813
22 583 967
23 582 655
24 582 573
25 582 684
26 582 73
27 581 993
28 581 505
29 580 652
30 580 567
31 580 626
32 579 28
33 577 325
34 576 451
35 575 147
36 575 278
37 574 987
38 570 581
39 570 347
40 570 403
41 566 725
42 566 781
43 566 503
44 565 566
45 565 554
46 563 320
47 562 2
48 562 303
49 562 970
50 562 900
51 562 337
52 560 531
53 560 615
54 560 89
55 559 595
56 559 412
57 557 106
58 555 110
59 554 574
60 554 322
61 553 819
62 552 773
63 551 763
64 550 66
65 549 179
66 549 88
67 549 803
68 549 546
69 549 121
70 549 463
71 546 341
72 546 901
73 545 77
74 544 987
75 542 596
76 541 574
77 541 449
78 541 768
79 541 861
80 540 454
81 540 662
82 539 890
83 538 531
84 538 241
85 536 29
86 535 949
87 533 93
88 533 155
89 532 976
90 532 210
91 531 635
92 531 927
93 530 261
94 528 321
95 527 121
96 527 815
97 526 483
98 525 97
99 525 987
100 524 426
101 523 259
102 523 466
103 522 418
104 522 493
105 522 377
106 520 160
107 519 286
108 518 316
109 516 881
110 516 52
111 516 970
112 514 149
113 513 645
114 512 144
115 511 526
116 510 654
117 509 618
118 506 573
119 506 537
120 505 723
121 503 805
122 503 556
123 503 746
124 503 161
125 502 641
126 501 483
127 501 758
128 501 111
129 500 842
130 500 832
131 499 951
132 498 214
133 497 621
134 496 755
135 496 753
136 495 135
137 493 834
138 492 170
139 491 702
140 490 705
141 490 180
142 489 446
143 489 537
144 489 782
145 488 163
146 487 697
147 487 558
148 486 54
149 484 1000
150 484 994
151 484 462
152 483 394
153 482 670
154 481 609
155 481 870
156 480 492
157 479 283
158 476 774
159 476 623
160 475 964
161 475 754
162 474 143
163 473 867
164 473 936
165 472 816
166 472 259
167 470 227
168 470 282
169 469 41
170 469 968
171 468 787
172 467 852
173 466 220
174 464 679
175 464 699
176 463 632
177 463 611
178 462 495
179 457 873
180 455 378
181 454 258
182 454 183
183 453 594
184 453 977
185 452 105
186 452 730
187 452 918
188 450 53
189 449 124
190 449 164
191 448 426
192 448 233
193 447 802
194 446 498
195 446 36
196 446 851
197 445 801
198 445 300
199 443 137
200 443 99
201 443 255
202 443 25
203 443 723
204 442 967
205 441 769
206 440 511
207 439 691
208 439 233
209 439 428
210 438 621
211 438 495
212 437 96
213 437 443
214 437 50
215 435 390
216 434 829
217 433 357
218 430 323
219 428 676
220 428 129
221 428 738
222 427 291
223 427 383
224 427 237
225 427 62
226 424 226
227 423 271
228 423 754
229 423 9
230 422 767
231 422 515
232 421 213
233 420 846
234 419 575
235 419 493
236 418 156
237 416 195
238 415 311
239 415 68
240 414 976
241 412 280
242 411 814
243 411 217
244 411 61
245 411 44
246 410 48
247 409 474
248 408 543
249 408 244
250 408 825
251 407 876
252 407 123
253 406 395
254 406 466
255 406 10
256 406 427
257 405 573
258 405 766
259 404 724
260 403 44
261 403 446
262 402 281
263 402 239
264 401 145
265 401 389
266 400 859
267 397 498
268 397 570
269 396 567
270 396 957
271 396 899
272 395 470
273 395 837
274 394 817
275 394 859
276 394 429
277 394 273
278 394 835
279 393 274
280 393 907
281 393 925
282 392 300
283 391 495
284 390 7
285 389 588
286 389 919
287 387 727
288 387 68
289 386 957
290 385 647
291 384 971
292 384 829
293 383 795
294 383 747
295 382 6
296 382 69
297 382 232
298 382 111
299 382 586
300 381 456
301 380 123
302 380 521
303 379 221
304 378 548
305 378 234
306 377 831
307 376 515
308 376 414
309 376 537
310 375 811
311 375 108
312 374 153
313 373 559
314 373 405
315 373 82
316 370 184
317 370 829
318 368 541
319 368 991
320 368 590
321 367 749
322 366 250
323 365 996
324 365 395
325 364 315
326 364 643
327 363 900
328 362 262
329 361 302
330 361 674
331 361 617
332 360 449
333 358 388
334 357 482
335 357 215
336 357 275
337 357 526
338 356 674
339 355 895
340 354 224
341 354 34
342 353 956
343 352 970
344 352 60
345 352 62
346 351 171
347 351 46
348 351 868
349 351 193
350 350 280
351 349 947
352 349 148
353 347 230
354 345 467
355 344 702
356 343 624
357 343 677
358 343 667
359 341 940
360 341 166
361 341 800
362 340 289
363 340 830
364 338 985
365 336 882
366 335 916
367 334 784
368 333 134
369 333 38
370 331 280
371 330 125
372 330 507
373 328 730
374 328 577
375 327 884
376 326 315
377 326 691
378 325 984
379 325 791
380 324 136
381 324 905
382 323 528
383 323 261
384 321 604
385 321 693
386 321 117
387 321 703
388 320 197
389 319 1000
390 319 326
391 319 321
392 317 239
393 317 882
394 317 504
395 316 75
396 314 951
397 313 587
398 313 164
399 313 231
400 312 647
401 311 74
402 311 74
403 311 884
404 309 199
405 308 515
406 307 313
407 307 262
408 307 305
409 306 360
410 306 958
411 306 772
412 305 711
413 305 582
414 304 853
415 303 135
416 303 326
417 301 904
418 301 420
419 299 327
420 298 905
421 297 959
422 297 98
423 296 20
424 292 889
425 291 637
426 291 976
427 290 622
428 290 82
429 290 277
430 289 519
431 289 498
432 287 22
433 287 696
434 286 642
435 285 452
436 285 201
437 285 543
438 284 666
439 284 859
440 284 299
441 283 135
442 282 673
443 282 583
444 282 103
445 281 371
446 281 521
447 281 923
448 281 767
449 281 353
450 281 493
451 280 342
452 280 964
453 278 930
454 278 665
455 278 728
456 277 907
457 276 16
458 276 243
459 275 292
460 274 576
461 274 416
462 273 91
463 272 103
464 272 712
465 271 136
466 269 978
467 268 806
468 268 270
469 268 734
470 267 302
471 264 304
472 264 368
473 264 917
474 263 871
475 263 293
476 262 147
477 261 846
478 261 3
479 260 171
480 260 190
481 260 654
482 255 696
483 255 198
484 254 174
485 253 906
486 253 9
487 253 113
488 253 290
489 252 954
490 252 166
491 252 878
492 251 987
493 251 930
494 248 893
495 248 154
496 247 611
497 247 682
498 245 78
499 242 908
500 242 475
501 242 511
502 241 602
503 241 107
504 240 764
505 240 298
506 240 259
507 239 208
508 235 221
509 235 877
510 234 528
511 234 292
512 233 760
513 233 146
514 232 226
515 231 302
516 230 296
517 230 624
518 229 228
519 225 152
520 224 354
521 223 978
522 223 170
523 222 726
524 222 886
525 221 181
526 220 528
527 219 248
528 219 129
529 218 428
530 218 680
531 218 567
532 217 621
533 216 279
534 215 644
535 213 780
536 213 744
537 212 442
538 212 174
539 211 304
540 211 887
541 210 572
542 209 21
543 209 828
544 209 609
545 205 615
546 205 522
547 205 825
548 205 444
549 204 435
550 204 79
551 202 278
552 201 642
553 201 569
554 200 708
555 200 942
556 200 541
557 199 599
558 199 909
559 199 547
560 197 356
561 196 677
562 195 258
563 195 958
564 195 109
565 194 388
566 194 846
567 193 953
568 193 580
569 190 83
570 189 331
571 189 236
572 189 594
573 188 750
574 188 562
575 187 784
576 187 895
577 186 494
578 186 555
579 186 984
580 185 887
581 184 474
582 184 877
583 184 490
584 183 325
585 182 884
586 182 904
587 182 235
588 182 111
589 182 738
590 181 787
591 180 258
592 179 997
593 176 430
594 176 292
595 176 408
596 175 183
597 173 362
598 172 263
599 172 808
600 172 308
601 171 39
602 171 61
603 170 923
604 170 743
605 170 675
606 169 576
607 168 736
608 168 194
609 168 212
610 167 155
611 167 495
612 166 4
613 165 573
614 164 228
615 164 767
616 162 493
617 162 661
618 160 745
619 159 62
620 157 343
621 157 485
622 156 921
623 156 361
624 156 23
625 155 528
626 155 533
627 155 661
628 154 20
629 154 188
630 154 756
631 153 538
632 153 249
633 152 275
634 151 187
635 149 61
636 149 901
637 148 977
638 148 990
639 148 933
640 147 279
641 147 649
642 147 204
643 147 722
644 147 414
645 146 589
646 144 819
647 143 614
648 141 234
649 140 180
650 140 632
651 138 132
652 137 552
653 136 317
654 136 650
655 135 403
656 134 400
657 134 834
658 134 844
659 133 362
660 132 95
661 132 405
662 132 849
663 131 459
664 129 784
665 125 547
666 125 208
667 125 263
668 124 809
669 124 208
670 124 800
671 123 210
672 123 378
673 122 850
674 122 240
675 122 381
676 122 877
677 121 798
678 120 628
679 118 666
680 118 148
681 117 698
682 116 771
683 116 207
684 115 74
685 115 659
686 115 198
687 115 33
688 114 685
689 114 327
690 113 457
691 113 473
692 112 128
693 110 309
694 110 722
695 110 266
696 108 590
697 108 761
698 107 900
699 106 435
700 105 403
701 105 788
702 104 779
703 104 478
704 102 659
705 101 349
706 100 236
707 99 412
708 99 891
709 99 373
710 99 559
711 98 681
712 98 475
713 97 358
714 97 933
715 96 796
716 95 872
717 95 973
718 93 673
719 93 138
720 92 592
721 92 516
722 92 71
723 91 2
724 91 404
725 89 496
726 89 131
727 88 395
728 88 468
729 87 325
730 86 170
731 85 648
732 85 937
733 85 742
734 84 14
735 84 549
736 84 585
737 82 942
738 81 818
739 81 655
740 81 805
741 80 325
742 80 899
743 80 542
744 80 381
745 79 926
746 78 250
747 78 111
748 77 996
749 76 701
750 76 966
